* C: ++++-
* D: +-+++
* rowsum: (1,1,3,3)

2 x1 -2 x3 +2 x6 -2 x9 = 0;
-2 x4 +2 x5 +2 x7 -2 x8 = 0;
2 x4 -2 x5 -2 x7 +2 x8 = 0;
-2 x1 +2 x3 -2 x6 +2 x9 = 0;

-2 x1 +2 x4 +2 x6 -2 x8 = 0;
-2 x2 +2 x3 -2 x9 +2 x10 = 0;
2 x2 -2 x3 +2 x9 -2 x10 = 0;
2 x1 -2 x4 -2 x6 +2 x8 = 0;